<?xml version = "1.0" encoding="UTF-8" standalone="yes"?>
<CPLEXSolution version="1.2">
 <header
   problemName="IloCplex"
   solutionName="p0"
   solutionIndex="-1"
   objectiveValue="26231334"
   solutionTypeValue="3"
   solutionTypeString="primal"
   solutionStatusValue="127"
   solutionStatusString="integer feasible solution"
   solutionMethodString="mip"
   primalFeasible="0"
   dualFeasible="0"
   writeLevel="3"/>
 <quality
   epInt="1.0000000000000001e-05"
   epRHS="9.9999999999999995e-07"
   maxIntInfeas="0"
   maxPrimalInfeas="0"
   maxX="4799"
   maxSlack="4972"/>
 <variables>
  <variable index="0" value="4799"/>
  <variable index="1" value="4799"/>
  <variable index="4" value="4799"/>
  <variable index="5" value="4799"/>
  <variable index="6" value="4799"/>
  <variable index="7" value="4799"/>
  <variable index="8" value="4799"/>
  <variable index="11" value="4799"/>
  <variable index="13" value="4799"/>
  <variable index="59" value="1"/>
  <variable index="124" value="1"/>
  <variable index="286" value="1"/>
  <variable index="350" value="1"/>
  <variable index="479" value="1"/>
  <variable index="549" value="1"/>
  <variable index="688" value="1"/>
  <variable index="800" value="1"/>
  <variable index="883" value="1"/>
  <variable index="1007" value="1"/>
  <variable index="1098" value="1"/>
  <variable index="1182" value="1"/>
  <variable index="1291" value="1"/>
  <variable index="1404" value="1"/>
  <variable index="1466" value="1"/>
  <variable index="1563" value="1"/>
  <variable index="1671" value="1"/>
  <variable index="1752" value="1"/>
  <variable index="1887" value="1"/>
  <variable index="1921" value="1"/>
  <variable index="2062" value="1"/>
  <variable index="2139" value="1"/>
  <variable index="2294" value="1"/>
  <variable index="2348" value="1"/>
  <variable index="2438" value="1"/>
  <variable index="2518" value="1"/>
  <variable index="2622" value="1"/>
  <variable index="2736" value="1"/>
  <variable index="2905" value="1"/>
  <variable index="2945" value="1"/>
  <variable index="3032" value="1"/>
  <variable index="3169" value="1"/>
  <variable index="3264" value="1"/>
  <variable index="3376" value="1"/>
  <variable index="3417" value="1"/>
  <variable index="3609" value="1"/>
  <variable index="3684" value="1"/>
  <variable index="3742" value="1"/>
  <variable index="3823" value="1"/>
  <variable index="3961" value="1"/>
  <variable index="4108" value="1"/>
  <variable index="4214" value="1"/>
  <variable index="4293" value="1"/>
  <variable index="4331" value="1"/>
  <variable index="4473" value="1"/>
  <variable index="4527" value="1"/>
  <variable index="4692" value="1"/>
  <variable index="4735" value="1"/>
  <variable index="4870" value="1"/>
  <variable index="4974" value="1"/>
  <variable index="5053" value="1"/>
  <variable index="5180" value="1"/>
  <variable index="5260" value="1"/>
  <variable index="5330" value="1"/>
  <variable index="5501" value="1"/>
  <variable index="5590" value="1"/>
  <variable index="5695" value="1"/>
  <variable index="5720" value="1"/>
  <variable index="5899" value="1"/>
  <variable index="5937" value="1"/>
  <variable index="6047" value="1"/>
  <variable index="6116" value="1"/>
  <variable index="6306" value="1"/>
  <variable index="6410" value="1"/>
  <variable index="6511" value="1"/>
  <variable index="6565" value="1"/>
  <variable index="6668" value="1"/>
  <variable index="6767" value="1"/>
  <variable index="6912" value="1"/>
  <variable index="6958" value="1"/>
  <variable index="7056" value="1"/>
  <variable index="7203" value="1"/>
  <variable index="7255" value="1"/>
  <variable index="7325" value="1"/>
  <variable index="7497" value="1"/>
  <variable index="7543" value="1"/>
  <variable index="7681" value="1"/>
  <variable index="7754" value="1"/>
  <variable index="7878" value="1"/>
  <variable index="7940" value="1"/>
  <variable index="8102" value="1"/>
  <variable index="8177" value="1"/>
  <variable index="8296" value="1"/>
  <variable index="8315" value="1"/>
  <variable index="8426" value="1"/>
  <variable index="8534" value="1"/>
  <variable index="8657" value="1"/>
  <variable index="8775" value="1"/>
  <variable index="8846" value="1"/>
  <variable index="8989" value="1"/>
  <variable index="9029" value="1"/>
  <variable index="9185" value="1"/>
  <variable index="9241" value="1"/>
  <variable index="9319" value="1"/>
  <variable index="9451" value="1"/>
  <variable index="9533" value="1"/>
  <variable index="9644" value="1"/>
  <variable index="9728" value="1"/>
  <variable index="9872" value="1"/>
  <variable index="10013" value="1"/>
  <variable index="10015" value="1"/>
  <variable index="10018" value="1"/>
  <variable index="10019" value="1"/>
  <variable index="10020" value="1"/>
  <variable index="10021" value="1"/>
  <variable index="10022" value="1"/>
  <variable index="10025" value="1"/>
  <variable index="10027" value="1"/>
 </variables>
</CPLEXSolution>
